<instance format="XCSP3" type="CSP">
  <variables>
    <var id="x0"> 1 3 12 13 </var>
    <var id="x1"> 1 13 14 </var>
    <var id="x2"> 1 6 7 14 </var>
    <var id="x3"> 7 13 14 </var>
    <var id="x4"> 6 12 14 </var>
    <var id="x5"> 1 3 12 </var>
    <var id="x6"> 1 12 14 </var>
    <var id="x7"> 8 14 </var>
    <var id="x8"> 4 8 13 </var>
    <var id="x9"> 5 8..10 13 14 </var>
    <var id="x10"> 5 14 </var>
    <var id="x11"> 4 10 14 </var>
    <var id="x12"> 5 9 </var>
    <var id="x13"> 8..10 </var>
    <var id="x14"> 0 7 8 </var>
    <var id="x15"> 0 2 5 7 8 </var>
    <var id="x16"> 1 5 8 9 </var>
    <var id="x17"> 0..2 5 9 </var>
    <var id="x18"> 1 5 7 </var>
    <var id="x19"> 0 1 7 9 </var>
    <var id="x20"> 0 1 8 9 </var>
    <var id="x21"> 3 12 </var>
    <var id="x22"> 1 3 5 12 </var>
    <var id="x23"> 3 5 9 12 </var>
    <var id="x24"> 4 9 </var>
    <var id="x25"> 1 4 9 </var>
    <var id="x26"> 1..3 9 12 </var>
    <var id="x27"> 1 9 12 </var>
    <var id="x28"> 0 5 8 13 </var>
    <var id="x29"> 1 5 8 9 13 14 </var>
    <var id="x30"> 0 1 5 9 12 </var>
    <var id="x31"> 0 1 5 9 14 </var>
    <var id="x32"> 1 5 14 </var>
    <var id="x33"> 0 9 13 14 </var>
    <var id="x34"> 12 14 </var>
    <var id="x35"> 1 8 9 12 </var>
    <var id="x36"> 0 7 12 </var>
    <var id="x37"> 9 12 </var>
    <var id="x38"> 1 2 11 12 </var>
    <var id="x39"> 2 11 12 </var>
    <var id="x40"> 0..2 7 9 12 </var>
    <var id="x41"> 0 1 7 9 </var>
    <var id="x42"> 0 1 9 11 12 </var>
    <var id="x43"> 1 2 </var>
    <var id="x44"> 0 2 5 6 </var>
    <var id="x45"> 1 5 9 </var>
    <var id="x46"> 1 3 5 6 </var>
    <var id="x47"> 0..2 5 9 </var>
    <var id="x48"> 1..3 9 </var>
    <var id="x49"> 0 1 9 </var>
    <var id="x50"> 0 1 11 12 </var>
    <var id="x51"> 1 11 12 </var>
    <var id="x52"> 0 7 </var>
    <var id="x53"> 1 9 14 </var>
    <var id="x54"> 0 1 9 12 </var>
    <var id="x55"> 0 1 7 9 14 </var>
    <var id="x56"> 0 1 7 9 </var>
    <var id="x57"> 0 7 8 14 </var>
    <var id="x58"> 0 11 13 </var>
    <var id="x59"> 13 14 </var>
    <var id="x60"> 0 7 8 13 </var>
    <var id="x61"> 0 4 </var>
    <var id="x62"> 0 7 14 </var>
    <var id="x63"> 0 8 11 14 </var>
    <var id="x64"> 0 1 12 </var>
    <var id="x65"> 6 9 12 14 </var>
    <var id="x66"> 1 8 12 </var>
    <var id="x67"> 0 1 9 12 </var>
    <var id="x68"> 0 1 6 9 14 </var>
    <var id="x69"> 0 9 14 </var>
    <var id="x70"> 0 1 9 12 </var>
    <var id="x71"> 0 3 5 12 </var>
    <var id="x72"> 3 5 12 14 </var>
    <var id="x73"> 4 12 </var>
    <var id="x74"> 0 5 </var>
    <var id="x75"> 0 4 5 10 12 </var>
    <var id="x76"> 4 10 12 14 </var>
    <var id="x77"> 0 12 14 </var>
    <var id="x78"> 6 9 12 </var>
    <var id="x79"> 1 9 10 </var>
    <var id="x80"> 1 6 7 </var>
    <var id="x81"> 4 7 9 </var>
    <var id="x82"> 4 6 10 12 </var>
    <var id="x83"> 1 7 9 12 </var>
    <var id="x84"> 1 4 6 7 9 </var>
    <var id="x85"> 3 6 8 12 14 </var>
    <var id="x86"> 3 6 12..14 </var>
    <var id="x87"> 12 </var>
    <var id="x88"> 6 14 </var>
    <var id="x89"> 3 6 11 14 </var>
    <var id="x90"> 6 13 </var>
    <var id="x91"> 3 8 12 </var>
    <var id="x92"> 1 5 11 13 </var>
    <var id="x93"> 1 2 5 </var>
    <var id="x94"> 1 5..7 </var>
    <var id="x95"> 1 5..7 11 </var>
    <var id="x96"> 7 11 13 </var>
    <var id="x97"> 1 2 5 7 </var>
    <var id="x98"> 1 6 7 13 </var>
    <var id="x99"> 0 6 </var>
    <var id="x100"> 2 11 13 </var>
    <var id="x101"> 0 2 5 6 13 </var>
    <var id="x102"> 0 11 13 </var>
    <var id="x103"> 2 6 10 11 </var>
    <var id="x104"> 0 2 5 </var>
    <var id="x105"> 2 10 </var>
  </variables>
  <constraints>
    <group>
      <allDifferent> %... </allDifferent>
      <args> x0 x1 x2 x3 x4 x5 x6 </args>
      <args> x7 x8 x9 x10 x11 x12 x13 </args>
      <args> x14 x15 x16 x17 x18 x19 x20 </args>
      <args> x21 x22 x23 x24 x25 x26 x27 </args>
      <args> x28 x29 x30 x31 x32 x33 x34 x35 </args>
      <args> x36 x37 x38 x39 x40 x41 x42 </args>
      <args> x43 x44 x45 x46 x47 x48 x49 </args>
      <args> x50 x51 x52 x53 x54 x55 x56 </args>
      <args> x57 x58 x59 x60 x61 x62 x63 </args>
      <args> x64 x65 x66 x67 x68 x69 x70 </args>
      <args> x71 x72 x73 x74 x75 x76 x77 </args>
      <args> x78 x79 x80 x81 x82 x83 x84 </args>
      <args> x85 x86 x87 x88 x89 x90 x91 </args>
      <args> x92 x93 x94 x95 x96 x97 x98 </args>
      <args> x99 x100 x101 x102 x103 x104 x105 </args>
      <args> x7 x14 x21 x36 x57 x85 x99 </args>
      <args> x0 x22 x50 x58 x64 x71 x92 </args>
      <args> x23 x37 x59 x65 x72 x78 x86 </args>
      <args> x8 x38 x43 x51 x66 x73 x100 </args>
      <args> x15 x28 x44 x52 x60 x74 x101 </args>
      <args> x1 x9 x16 x29 x45 x53 x79 </args>
      <args> x17 x30 x54 x61 x67 x75 x87 x93 </args>
      <args> x2 x31 x55 x62 x68 x88 x94 </args>
      <args> x10 x18 x32 x46 x80 x89 x95 </args>
      <args> x3 x24 x33 x69 x81 x96 x102 </args>
      <args> x4 x11 x34 x39 x76 x82 x103 </args>
      <args> x12 x40 x47 x70 x83 x97 x104 </args>
      <args> x19 x25 x41 x56 x84 x90 x98 </args>
      <args> x5 x13 x26 x35 x48 x91 x105 </args>
      <args> x6 x20 x27 x42 x49 x63 x77 </args>
    </group>
  </constraints>
</instance>

